Si20 O40                                
   1.00000000000000     
     8.6739999999999995    0.0000000000000000    0.0000000000000005
    -0.0000000000000005    8.6739999999999995    0.0000000000000005
     0.0000000000000000    0.0000000000000000   13.9190000000000005
   Si   O 
    20    40
Direct
  0.2533999999999992  0.4307999999999979  0.1114000000000033
  0.5692000000000021  0.2533999999999992  0.1114000000000033
  0.7466000000000008  0.5692000000000021  0.1114000000000033
  0.4307999999999979  0.7466000000000008  0.1114000000000033
  0.7466000000000008  0.4307999999999979  0.6114000000000033
  0.4307999999999979  0.2533999999999992  0.6114000000000033
  0.2533999999999992  0.5692000000000021  0.6114000000000033
  0.5692000000000021  0.7466000000000008  0.6114000000000033
  0.7466000000000008  0.5692000000000021  0.8885999999999967
  0.4307999999999979  0.7466000000000008  0.8885999999999967
  0.2533999999999992  0.4307999999999979  0.8885999999999967
  0.5692000000000021  0.2533999999999992  0.8885999999999967
  0.2533999999999992  0.5692000000000021  0.3885999999999967
  0.5692000000000021  0.7466000000000008  0.3885999999999967
  0.7466000000000008  0.4307999999999979  0.3885999999999967
  0.4307999999999979  0.2533999999999992  0.3885999999999967
  0.0000000000000000  0.5000000000000000  0.2500000000000000
  0.5000000000000000  0.0000000000000000  0.2500000000000000
  0.0000000000000000  0.5000000000000000  0.7500000000000000
  0.5000000000000000  0.0000000000000000  0.7500000000000000
  0.1088999999999984  0.6073999999999984  0.3177999999999983
  0.3926000000000016  0.1088999999999984  0.3177999999999983
  0.8911000000000016  0.3926000000000016  0.3177999999999983
  0.6073999999999984  0.8911000000000016  0.3177999999999983
  0.8911000000000016  0.6073999999999984  0.8177999999999983
  0.6073999999999984  0.1088999999999984  0.8177999999999983
  0.1088999999999984  0.3926000000000016  0.8177999999999983
  0.3926000000000016  0.8911000000000016  0.8177999999999983
  0.8911000000000016  0.3926000000000016  0.6822000000000017
  0.6073999999999984  0.8911000000000016  0.6822000000000017
  0.1088999999999984  0.6073999999999984  0.6822000000000017
  0.3926000000000016  0.1088999999999984  0.6822000000000017
  0.1088999999999984  0.3926000000000016  0.1822000000000017
  0.3926000000000016  0.8911000000000016  0.1822000000000017
  0.8911000000000016  0.6073999999999984  0.1822000000000017
  0.6073999999999984  0.1088999999999984  0.1822000000000017
  0.1985000000000028  0.4155000000000015  0.0000000000000000
  0.5844999999999985  0.1985000000000028  0.0000000000000000
  0.8014999999999972  0.5844999999999985  0.0000000000000000
  0.4155000000000015  0.8014999999999972  0.0000000000000000
  0.8014999999999972  0.4155000000000015  0.5000000000000000
  0.4155000000000015  0.1985000000000028  0.5000000000000000
  0.1985000000000028  0.5844999999999985  0.5000000000000000
  0.5844999999999985  0.8014999999999972  0.5000000000000000
  0.3937999999999988  0.3109999999999999  0.1321000000000012
  0.6890000000000001  0.3937999999999988  0.1321000000000012
  0.6062000000000012  0.6890000000000001  0.1321000000000012
  0.3109999999999999  0.6062000000000012  0.1321000000000012
  0.6062000000000012  0.3109999999999999  0.6321000000000012
  0.3109999999999999  0.3937999999999988  0.6321000000000012
  0.3937999999999988  0.6890000000000001  0.6321000000000012
  0.6890000000000001  0.6062000000000012  0.6321000000000012
  0.6062000000000012  0.6890000000000001  0.8678999999999988
  0.3109999999999999  0.6062000000000012  0.8678999999999988
  0.3937999999999988  0.3109999999999999  0.8678999999999988
  0.6890000000000001  0.3937999999999988  0.8678999999999988
  0.3937999999999988  0.6890000000000001  0.3678999999999988
  0.6890000000000001  0.6062000000000012  0.3678999999999988
  0.6062000000000012  0.3109999999999999  0.3678999999999988
  0.3109999999999999  0.3937999999999988  0.3678999999999988
 
  0.00000000E+00  0.00000000E+00  0.00000000E+00
  0.00000000E+00  0.00000000E+00  0.00000000E+00
  0.00000000E+00  0.00000000E+00  0.00000000E+00
  0.00000000E+00  0.00000000E+00  0.00000000E+00
  0.00000000E+00  0.00000000E+00  0.00000000E+00
  0.00000000E+00  0.00000000E+00  0.00000000E+00
  0.00000000E+00  0.00000000E+00  0.00000000E+00
  0.00000000E+00  0.00000000E+00  0.00000000E+00
  0.00000000E+00  0.00000000E+00  0.00000000E+00
  0.00000000E+00  0.00000000E+00  0.00000000E+00
  0.00000000E+00  0.00000000E+00  0.00000000E+00
  0.00000000E+00  0.00000000E+00  0.00000000E+00
  0.00000000E+00  0.00000000E+00  0.00000000E+00
  0.00000000E+00  0.00000000E+00  0.00000000E+00
  0.00000000E+00  0.00000000E+00  0.00000000E+00
  0.00000000E+00  0.00000000E+00  0.00000000E+00
  0.00000000E+00  0.00000000E+00  0.00000000E+00
  0.00000000E+00  0.00000000E+00  0.00000000E+00
  0.00000000E+00  0.00000000E+00  0.00000000E+00
  0.00000000E+00  0.00000000E+00  0.00000000E+00
  0.00000000E+00  0.00000000E+00  0.00000000E+00
  0.00000000E+00  0.00000000E+00  0.00000000E+00
  0.00000000E+00  0.00000000E+00  0.00000000E+00
  0.00000000E+00  0.00000000E+00  0.00000000E+00
  0.00000000E+00  0.00000000E+00  0.00000000E+00
  0.00000000E+00  0.00000000E+00  0.00000000E+00
  0.00000000E+00  0.00000000E+00  0.00000000E+00
  0.00000000E+00  0.00000000E+00  0.00000000E+00
  0.00000000E+00  0.00000000E+00  0.00000000E+00
  0.00000000E+00  0.00000000E+00  0.00000000E+00
  0.00000000E+00  0.00000000E+00  0.00000000E+00
  0.00000000E+00  0.00000000E+00  0.00000000E+00
  0.00000000E+00  0.00000000E+00  0.00000000E+00
  0.00000000E+00  0.00000000E+00  0.00000000E+00
  0.00000000E+00  0.00000000E+00  0.00000000E+00
  0.00000000E+00  0.00000000E+00  0.00000000E+00
  0.00000000E+00  0.00000000E+00  0.00000000E+00
  0.00000000E+00  0.00000000E+00  0.00000000E+00
  0.00000000E+00  0.00000000E+00  0.00000000E+00
  0.00000000E+00  0.00000000E+00  0.00000000E+00
  0.00000000E+00  0.00000000E+00  0.00000000E+00
  0.00000000E+00  0.00000000E+00  0.00000000E+00
  0.00000000E+00  0.00000000E+00  0.00000000E+00
  0.00000000E+00  0.00000000E+00  0.00000000E+00
  0.00000000E+00  0.00000000E+00  0.00000000E+00
  0.00000000E+00  0.00000000E+00  0.00000000E+00
  0.00000000E+00  0.00000000E+00  0.00000000E+00
  0.00000000E+00  0.00000000E+00  0.00000000E+00
  0.00000000E+00  0.00000000E+00  0.00000000E+00
  0.00000000E+00  0.00000000E+00  0.00000000E+00
  0.00000000E+00  0.00000000E+00  0.00000000E+00
  0.00000000E+00  0.00000000E+00  0.00000000E+00
  0.00000000E+00  0.00000000E+00  0.00000000E+00
  0.00000000E+00  0.00000000E+00  0.00000000E+00
  0.00000000E+00  0.00000000E+00  0.00000000E+00
  0.00000000E+00  0.00000000E+00  0.00000000E+00
  0.00000000E+00  0.00000000E+00  0.00000000E+00
  0.00000000E+00  0.00000000E+00  0.00000000E+00
  0.00000000E+00  0.00000000E+00  0.00000000E+00
  0.00000000E+00  0.00000000E+00  0.00000000E+00
