Si20 O40
1.0
   8.6739999999999995    0.0000000000000000    0.0000000000000005
  -0.0000000000000005    8.6739999999999995    0.0000000000000005
   0.0000000000000000    0.0000000000000000   13.9190000000000005
Si O
20 40
direct
   0.2534000000000000    0.4308000000000000    0.1114000000000000 Si
   0.5692000000000000    0.2534000000000000    0.1114000000000000 Si
   0.7466000000000000    0.5692000000000000    0.1114000000000000 Si
   0.4308000000000000    0.7466000000000000    0.1114000000000000 Si
   0.7466000000000000    0.4308000000000000    0.6114000000000001 Si
   0.4308000000000000    0.2534000000000000    0.6114000000000001 Si
   0.2534000000000000    0.5692000000000000    0.6114000000000001 Si
   0.5692000000000000    0.7466000000000000    0.6114000000000001 Si
   0.7466000000000000    0.5692000000000000    0.8885999999999999 Si
   0.4308000000000000    0.7466000000000000    0.8885999999999999 Si
   0.2534000000000000    0.4308000000000000    0.8885999999999999 Si
   0.5692000000000000    0.2534000000000000    0.8885999999999999 Si
   0.2534000000000000    0.5692000000000000    0.3886000000000000 Si
   0.5692000000000000    0.7466000000000000    0.3886000000000000 Si
   0.7466000000000000    0.4308000000000000    0.3886000000000000 Si
   0.4308000000000000    0.2534000000000000    0.3886000000000000 Si
   0.0000000000000000    0.5000000000000000    0.2500000000000000 Si
   0.5000000000000000    0.0000000000000000    0.2500000000000000 Si
   0.0000000000000000    0.5000000000000000    0.7500000000000000 Si
   0.5000000000000000    0.0000000000000000    0.7500000000000000 Si
   0.1089000000000000    0.6074000000000001    0.3178000000000000 O
   0.3926000000000000    0.1089000000000000    0.3178000000000000 O
   0.8911000000000000    0.3926000000000000    0.3178000000000000 O
   0.6074000000000001    0.8911000000000000    0.3178000000000000 O
   0.8911000000000000    0.6074000000000001    0.8178000000000000 O
   0.6074000000000001    0.1089000000000000    0.8178000000000000 O
   0.1089000000000000    0.3926000000000000    0.8178000000000000 O
   0.3926000000000000    0.8911000000000000    0.8178000000000000 O
   0.8911000000000000    0.3926000000000000    0.6822000000000000 O
   0.6074000000000001    0.8911000000000000    0.6822000000000000 O
   0.1089000000000000    0.6074000000000001    0.6822000000000000 O
   0.3926000000000000    0.1089000000000000    0.6822000000000000 O
   0.1089000000000000    0.3926000000000000    0.1822000000000000 O
   0.3926000000000000    0.8911000000000000    0.1822000000000000 O
   0.8911000000000000    0.6074000000000001    0.1822000000000000 O
   0.6074000000000001    0.1089000000000000    0.1822000000000000 O
   0.1985000000000000    0.4155000000000000    0.0000000000000000 O
   0.5845000000000000    0.1985000000000000    0.0000000000000000 O
   0.8015000000000000    0.5845000000000000    0.0000000000000000 O
   0.4155000000000000    0.8015000000000000    0.0000000000000000 O
   0.8015000000000000    0.4155000000000000    0.5000000000000000 O
   0.4155000000000000    0.1985000000000000    0.5000000000000000 O
   0.1985000000000000    0.5845000000000000    0.5000000000000000 O
   0.5845000000000000    0.8015000000000000    0.5000000000000000 O
   0.3938000000000000    0.3110000000000000    0.1321000000000000 O
   0.6889999999999999    0.3938000000000000    0.1321000000000000 O
   0.6062000000000000    0.6889999999999999    0.1321000000000000 O
   0.3110000000000000    0.6062000000000000    0.1321000000000000 O
   0.6062000000000000    0.3110000000000000    0.6321000000000000 O
   0.3110000000000000    0.3938000000000000    0.6321000000000000 O
   0.3938000000000000    0.6889999999999999    0.6321000000000000 O
   0.6889999999999999    0.6062000000000000    0.6321000000000000 O
   0.6062000000000000    0.6889999999999999    0.8679000000000000 O
   0.3110000000000000    0.6062000000000000    0.8679000000000000 O
   0.3938000000000000    0.3110000000000000    0.8679000000000000 O
   0.6889999999999999    0.3938000000000000    0.8679000000000000 O
   0.3938000000000000    0.6889999999999999    0.3679000000000000 O
   0.6889999999999999    0.6062000000000000    0.3679000000000000 O
   0.6062000000000000    0.3110000000000000    0.3679000000000000 O
   0.3110000000000000    0.3938000000000000    0.3679000000000000 O
