SimulationType                MonteCarlo
NumberOfCycles                500
PrintEvery                    50
PrintPropertiesEvery          50

Forcefield                    Local
CutOff                        14.0

Framework                     0
FrameworkName                 structure_charged
UnitCells                     2 2 2
ExternalTemperature           298.0

Component 0 MoleculeName             helium
            MoleculeDefinition       Local
            WidomProbability         1.0
            CreateNumberOfMolecules  0